c Random Network
p max    10      20
n         1  s
n        10  t
a       7       9      42
a       6       1      34
a       1       6      17
a       5       2       3
a       5       1      31
a       8      10      13
a       4      10      12
a       5       4      33
a       4       1       6
a       2       7      20
a       6       8       5
a       3       4      13
a       5       7      12
a      10       7      29
a       9       7      40
a       2       5      45
a       2       3      35
a       3       1      14
a       9       5      14
a       8       5       9
